(set-info :smt-lib-version 2.6)
(set-logic QF_NIA)
(set-info :source |AProve team, see http://aprove.informatik.rwth-aachen.de/, submitted for SMT-COMP 2014|)
(set-info :category "industrial")
(set-info :status sat)
(declare-fun a__4 () Int)
(declare-fun a__2 () Int)
(declare-fun a__8 () Int)
(declare-fun a__12 () Int)
(declare-fun a__16 () Int)
(declare-fun a__19 () Int)
(declare-fun a__23 () Int)
(declare-fun a__26 () Int)
(declare-fun a__3 () Int)
(declare-fun a__7 () Int)
(declare-fun a__11 () Int)
(declare-fun a__15 () Int)
(declare-fun a__18 () Int)
(declare-fun a__22 () Int)
(declare-fun a__25 () Int)
(assert (and (>= (+ (* a__4 a__2) (* (- 0 1) a__2)) 0) (>= (+ (* a__8 a__2) (* (- 0 1) a__2)) 0) (>= (+ (* a__12 a__2) (* (- 0 1) a__2)) 0) (>= (+ (* a__16 a__2) (* (- 0 1) a__2)) 0) (>= (+ (* a__19 a__2) (* (- 0 1) a__2)) 0) (>= (+ (* a__23 a__2) (* (- 0 1) a__2)) 0) (>= (+ (* a__26 a__2) (* (- 0 1) a__2)) 0) (>= (* a__3 a__2) 0) (>= (* a__7 a__2) 0) (>= (* a__11 a__2) 0) (>= (* a__15 a__2) 0) (>= (* a__18 a__2) 0) (>= (* a__22 a__2) 0) (>= (* a__25 a__2) 0) (not (and (= (* a__3 a__2) 0) (= (* a__7 a__2) 0) (= (* a__11 a__2) 0) (= (* a__15 a__2) 0) (= (* a__18 a__2) 0) (= (* a__22 a__2) 0) (= (* a__25 a__2) 0))) (>= a__4 0) (>= a__2 0) (>= a__8 0) (>= a__12 0) (>= a__16 0) (>= a__19 0) (>= a__23 0) (>= a__26 0) (>= a__3 0) (>= a__7 0) (>= a__11 0) (>= a__15 0) (>= a__18 0) (>= a__22 0) (>= a__25 0)))
(assert (<= a__11 10))
(assert (<= a__12 10))
(assert (<= a__15 10))
(assert (<= a__16 10))
(assert (<= a__18 10))
(assert (<= a__19 10))
(assert (<= a__2 10))
(assert (<= a__22 10))
(assert (<= a__23 10))
(assert (<= a__25 10))
(assert (<= a__26 10))
(assert (<= a__3 10))
(assert (<= a__4 10))
(assert (<= a__7 10))
(assert (<= a__8 10))
(check-sat)
;;(get-assignment)
;;(get-model)
(exit)
